
  22   10
  10   10   10   10   10   10   10   10   10   10

   0   0   0   0   0   0   0   0   0   0   0   3 2 10 21 
   9  10  10  10  10  10  10  10  10  10  10   2 16 3 
   5  10  10  10  10  10  10  10  10  10  10   2 20 4 
   7  10  10  10  10  10  10  10  10  10  10   1 5 
  10  10  10  10  10  10  10  10  10  10  10   1 6 
   9  10  10  10  10  10  10  10  10  10  10   2 19 7 
   6  10  10  10  10  10  10  10  10  10  10   1 8 
   9  10  10  10  10  10  10  10  10  10  10   1 9 
   9  10  10  10  10  10  10  10  10  10  10   2 18 11 
   6  10  10  10  10  10  10  10  10  10  10   1 11 
   4  10  10  10  10  10  10  10  10  10  10   1 12 
   2  10  10  10  10  10  10  10  10  10  10   1 13 
   9  10  10  10  10  10  10  10  10  10  10   1 14 
   2  10  10  10  10  10  10  10  10  10  10   1 15 
   8  10  10  10  10  10  10  10  10  10  10   1 17 
   1  10  10  10  10  10  10  10  10  10  10   1 17 
   3  10  10  10  10  10  10  10  10  10  10   1 22
   8  10  10  10  10  10  10  10  10  10  10   1 22
  10  10  10  10  10  10  10  10  10  10  10   1 22
   4  10  10  10  10  10  10  10  10  10  10   1 22
   9  10  10  10  10  10  10  10  10  10  10   1 22
   0   0   0   0   0   0   0   0   0   0   0   0 
